p cnf 16 35
4 5 -13 0
-2 4 -12 0
1 6 11 0
8 -9 -16 0
6 8 -13 0
-3 11 14 0
-3 -4 11 0
-4 -10 -12 0
6 -11 16 0
-2 8 -9 0
1 -7 15 0
7 13 -15 0
1 8 11 0
-2 -9 11 0
2 -10 -11 0
-2 -8 -10 0
10 -14 -15 0
1 6 -8 0
-5 -7 11 0
2 4 12 0
-7 14 -16 0
-6 -9 13 0
-8 -12 -16 0
-8 12 -14 0
-10 -14 16 0
9 13 14 0
-7 -8 -10 0
-2 5 7 0
2 -7 12 0
-4 -5 12 0
12 -13 -15 0
-5 9 11 0
-1 2 14 0
-7 15 16 0
-7 10 16 0
